data/CVRPLIB/Vrp-Set-XML100/instances/XML100_2214_20.vrp
NAME : XML100_2214_20
COMMENT : Generated by Queiroga, Sadykov, Uchoa, and Vidal (2021)
TYPE : CVRP
DIMENSION : 101
EDGE_WEIGHT_TYPE : EUC_2D
CAPACITY : 13
NODE_COORD_SECTION
1    500  500 
2    334  171 
3    139  167 
4    403  659 
5    473  29  
6    621  484 
7    762  48  
8    713  122 
9    321  632 
10   403  636 
11   732  829 
12   399  729 
13   353  977 
14   185  327 
15   100  439 
16   821  234 
17   660  900 
18   717  757 
19   23   399 
20   115  199 
21   23   214 
22   809  222 
23   111  276 
24   285  276 
25   812  69  
26   322  217 
27   594  759 
28   200  205 
29   307  625 
30   443  140 
31   133  538 
32   489  273 
33   757  880 
34   358  620 
35   696  43  
36   824  74  
37   425  140 
38   48   649 
39   48   355 
40   646  760 
41   148  260 
42   273  526 
43   391  658 
44   300  178 
45   402  680 
46   553  730 
47   335  547 
48   262  415 
49   432  609 
50   370  178 
51   909  393 
52   1    427 
53   253  241 
54   669  808 
55   834  82  
56   38   380 
57   335  700 
58   339  510 
59   764  830 
60   582  747 
61   837  113 
62   934  761 
63   304  59  
64   407  192 
65   380  187 
66   130  335 
67   514  568 
68   108  366 
69   825  134 
70   810  51  
71   747  797 
72   628  935 
73   303  589 
74   477  786 
75   319  359 
76   259  894 
77   185  297 
78   379  167 
79   69   378 
80   783  155 
81   815  87  
82   323  618 
83   863  24  
84   756  51  
85   655  759 
86   71   291 
87   32   539 
88   154  347 
89   376  205 
90   93   362 
91   314  572 
92   848  54  
93   601  129 
94   396  586 
95   744  719 
96   428  149 
97   498  911 
98   605  864 
99   328  638 
100  364  137 
101  423  823 
DEMAND_SECTION
1    0   
2    1   
3    1   
4    1   
5    1   
6    1   
7    1   
8    1   
9    1   
10   1   
11   1   
12   1   
13   1   
14   1   
15   1   
16   1   
17   1   
18   1   
19   1   
20   1   
21   1   
22   1   
23   1   
24   1   
25   1   
26   1   
27   1   
28   1   
29   1   
30   1   
31   1   
32   1   
33   1   
34   1   
35   1   
36   1   
37   1   
38   1   
39   1   
40   1   
41   1   
42   1   
43   1   
44   1   
45   1   
46   1   
47   1   
48   1   
49   1   
50   1   
51   1   
52   1   
53   1   
54   1   
55   1   
56   1   
57   1   
58   1   
59   1   
60   1   
61   1   
62   1   
63   1   
64   1   
65   1   
66   1   
67   1   
68   1   
69   1   
70   1   
71   1   
72   1   
73   1   
74   1   
75   1   
76   1   
77   1   
78   1   
79   1   
80   1   
81   1   
82   1   
83   1   
84   1   
85   1   
86   1   
87   1   
88   1   
89   1   
90   1   
91   1   
92   1   
93   1   
94   1   
95   1   
96   1   
97   1   
98   1   
99   1   
100  1   
101  1   
DEPOT_SECTION
1
-1
EOF
