data/CVRPLIB/Vrp-Set-XML100/solutions/XML100_2214_20.sol
Route #1: 94 61 58 32 10 70 17 53 84 39 26 59 45
Route #2: 57 41 30 37 86 51 18 55 38 78 89 67 14
Route #3: 47 87 65 13 76 40 22 85 20 19 2 27 52
Route #4: 93 33 56 75 12 96 71 16 97 73 100 11 44
Route #5: 74 23 25 43 1 62 99 77 49 64 88
Route #6: 34 83 6 69 82 91 54 35 24 80 60 68 79
Route #7: 66 48 9 3 42 98 8 81 28 72 90 46
Route #8: 5 50 15 21 7 92 4 29 36 95 63 31
Cost 10249
